[runlim] version:		1.10
[runlim] time limit:		311040000 seconds
[runlim] real time limit:	1800 seconds
[runlim] space limit:		30000 MB
[runlim] argv[0]:		python
[runlim] argv[1]:		FE.py
[runlim] argv[2]:		H-impcol_b.mtx.rnd
[runlim] start:			Wed Oct  9 01:20:32 2024
[runlim] main pid:		14997
[runlim] log captured:
8
8
Version identifier: 20.1.0.0 | 2020-11-10 | 9bedb6d68
CPXPARAM_Simplex_PGradient                       4
CPXPARAM_Read_DataCheck                          1
CPXPARAM_MIP_Strategy_File                       3
CPXPARAM_TimeLimit                               1800
CPXPARAM_WorkMem                                 122880
Tried aggregator 1 time.
MIP Presolve eliminated 6891 rows and 30 columns.
MIP Presolve modified 4261 coefficients.
Reduced MIP has 7869 rows, 3451 columns, and 177076 nonzeros.
Reduced MIP has 3451 binaries, 0 generals, 0 SOSs, and 0 indicators.
Presolve time = 0.71 sec. (1086.82 ticks)
Probing time = 0.02 sec. (3.46 ticks)
Tried aggregator 1 time.
Detecting symmetries...
Reduced MIP has 7869 rows, 3451 columns, and 177076 nonzeros.
Reduced MIP has 3451 binaries, 0 generals, 0 SOSs, and 0 indicators.
Presolve time = 0.15 sec. (186.35 ticks)
Probing time = 0.01 sec. (3.51 ticks)
Clique table members: 7869.
MIP emphasis: balance optimality and feasibility.
MIP search method: dynamic search.
Parallel mode: deterministic, using up to 8 threads.

Root node processing (before b&c):
  Real time             =    2.38 sec. (2489.77 ticks)
Parallel b&c, 8 threads:
  Real time             =    0.00 sec. (0.00 ticks)
  Sync time (average)   =    0.00 sec.
  Wait time (average)   =    0.00 sec.
                          ------------
Total (root+branch&cut) =    2.38 sec. (2489.77 ticks)
Trạng thái giải pháp: integer optimal solution
Giá trị Antibandwidth: 8
Giá trị Antibandwidth: 8
Các nhãn: [53, 49, 45, 32, 27, 18, 42, 11, 30, 28, 15, 14, 19, 22, 21, 4, 25, 43, 10, 6, 44, 37, 9, 34, 33, 31, 36, 20, 40, 58, 59, 51, 12, 46, 41, 47, 52, 35, 3, 13, 5, 38, 54, 39, 57, 23, 16, 56, 48, 29, 26, 24, 7, 55, 17, 8, 50, 1, 2]
Bài toán Antibandwidth
[runlim] end:			Wed Oct  9 01:20:35 2024
[runlim] status:		ok
[runlim] result:		0
[runlim] children:		0
[runlim] real:			3.12 seconds
[runlim] time:			8.58 seconds
[runlim] space:			167.4 MB
[runlim] samples:		26
